<?xml version = "1.0" encoding="UTF-8" standalone="yes"?>
<CPLEXSolution version="1.2">
 <header
   problemName="fir2_1.5.lp"
   solutionName="incumbent"
   solutionIndex="-1"
   objectiveValue="4"
   solutionTypeValue="3"
   solutionTypeString="primal"
   solutionStatusValue="101"
   solutionStatusString="integer optimal solution"
   solutionMethodString="mip"
   primalFeasible="1"
   dualFeasible="1"
   MIPNodes="0"
   MIPIterations="270"
   writeLevel="1"/>
 <quality
   epInt="1.0000000000000001e-05"
   epRHS="9.9999999999999995e-07"
   maxIntInfeas="0"
   maxPrimalInfeas="0"
   maxX="2"
   maxSlack="5"/>
 <linearConstraints>
  <constraint name="c1" index="0" slack="0"/>
  <constraint name="c2" index="1" slack="0"/>
  <constraint name="c3" index="2" slack="0"/>
  <constraint name="c4" index="3" slack="0"/>
  <constraint name="c5" index="4" slack="0"/>
  <constraint name="c6" index="5" slack="0"/>
  <constraint name="c7" index="6" slack="0"/>
  <constraint name="c8" index="7" slack="0"/>
  <constraint name="c9" index="8" slack="0"/>
  <constraint name="c10" index="9" slack="0"/>
  <constraint name="c11" index="10" slack="0"/>
  <constraint name="c12" index="11" slack="0"/>
  <constraint name="c13" index="12" slack="0"/>
  <constraint name="c14" index="13" slack="0"/>
  <constraint name="c15" index="14" slack="0"/>
  <constraint name="c16" index="15" slack="0"/>
  <constraint name="c17" index="16" slack="0"/>
  <constraint name="c18" index="17" slack="0"/>
  <constraint name="c19" index="18" slack="0"/>
  <constraint name="c20" index="19" slack="0"/>
  <constraint name="c21" index="20" slack="0"/>
  <constraint name="c22" index="21" slack="0"/>
  <constraint name="c23" index="22" slack="0"/>
  <constraint name="c24" index="23" slack="0"/>
  <constraint name="c25" index="24" slack="0"/>
  <constraint name="c26" index="25" slack="0"/>
  <constraint name="c27" index="26" slack="0"/>
  <constraint name="c28" index="27" slack="0"/>
  <constraint name="c29" index="28" slack="0"/>
  <constraint name="c30" index="29" slack="0"/>
  <constraint name="c31" index="30" slack="0"/>
  <constraint name="c32" index="31" slack="0"/>
  <constraint name="c33" index="32" slack="0"/>
  <constraint name="c34" index="33" slack="0"/>
  <constraint name="c35" index="34" slack="0"/>
  <constraint name="c36" index="35" slack="0"/>
  <constraint name="c37" index="36" slack="0"/>
  <constraint name="c38" index="37" slack="0"/>
  <constraint name="c39" index="38" slack="0"/>
  <constraint name="c40" index="39" slack="0"/>
  <constraint name="c41" index="40" slack="1"/>
  <constraint name="c42" index="41" slack="1"/>
  <constraint name="c43" index="42" slack="1"/>
  <constraint name="c44" index="43" slack="0"/>
  <constraint name="c45" index="44" slack="0"/>
  <constraint name="c46" index="45" slack="0"/>
  <constraint name="c47" index="46" slack="0"/>
  <constraint name="c48" index="47" slack="0"/>
  <constraint name="c49" index="48" slack="0"/>
  <constraint name="c50" index="49" slack="0"/>
  <constraint name="c51" index="50" slack="0"/>
  <constraint name="c52" index="51" slack="0"/>
  <constraint name="c53" index="52" slack="0"/>
  <constraint name="c54" index="53" slack="0"/>
  <constraint name="c55" index="54" slack="0"/>
  <constraint name="c56" index="55" slack="1"/>
  <constraint name="c57" index="56" slack="0"/>
  <constraint name="c58" index="57" slack="2"/>
  <constraint name="c59" index="58" slack="0"/>
  <constraint name="c60" index="59" slack="2"/>
  <constraint name="c61" index="60" slack="0"/>
  <constraint name="c62" index="61" slack="2"/>
  <constraint name="c63" index="62" slack="0"/>
  <constraint name="c64" index="63" slack="1"/>
  <constraint name="c65" index="64" slack="0"/>
  <constraint name="c66" index="65" slack="1"/>
  <constraint name="c67" index="66" slack="0"/>
  <constraint name="c68" index="67" slack="2"/>
  <constraint name="c69" index="68" slack="0"/>
  <constraint name="c70" index="69" slack="0"/>
  <constraint name="c71" index="70" slack="2"/>
  <constraint name="c72" index="71" slack="0"/>
  <constraint name="c73" index="72" slack="0"/>
  <constraint name="c74" index="73" slack="0"/>
  <constraint name="c75" index="74" slack="5"/>
  <constraint name="c76" index="75" slack="0"/>
  <constraint name="c77" index="76" slack="0"/>
  <constraint name="c78" index="77" slack="2"/>
  <constraint name="c79" index="78" slack="0"/>
  <constraint name="c80" index="79" slack="2"/>
  <constraint name="c81" index="80" slack="0"/>
  <constraint name="c82" index="81" slack="2"/>
  <constraint name="c83" index="82" slack="2"/>
  <constraint name="c84" index="83" slack="4"/>
  <constraint name="c85" index="84" slack="0"/>
  <constraint name="c86" index="85" slack="3"/>
  <constraint name="c87" index="86" slack="2"/>
  <constraint name="c88" index="87" slack="1"/>
  <constraint name="c89" index="88" slack="0"/>
  <constraint name="c90" index="89" slack="5"/>
  <constraint name="c91" index="90" slack="0"/>
  <constraint name="c92" index="91" slack="5"/>
  <constraint name="c93" index="92" slack="1"/>
  <constraint name="c94" index="93" slack="0"/>
  <constraint name="c95" index="94" slack="0"/>
  <constraint name="c96" index="95" slack="5"/>
  <constraint name="c97" index="96" slack="0"/>
  <constraint name="c98" index="97" slack="0"/>
  <constraint name="c99" index="98" slack="0"/>
  <constraint name="c100" index="99" slack="0"/>
  <constraint name="c101" index="100" slack="0"/>
  <constraint name="c102" index="101" slack="0"/>
  <constraint name="c103" index="102" slack="0"/>
  <constraint name="c104" index="103" slack="0"/>
  <constraint name="c105" index="104" slack="0"/>
  <constraint name="c106" index="105" slack="0"/>
  <constraint name="c107" index="106" slack="0"/>
  <constraint name="c108" index="107" slack="0"/>
  <constraint name="c109" index="108" slack="0"/>
 </linearConstraints>
 <variables>
  <variable name="M1" index="0" value="2"/>
  <variable name="M2" index="1" value="2"/>
  <variable name="x0,12" index="2" value="-0"/>
  <variable name="x0,13" index="3" value="-0"/>
  <variable name="x0,14" index="4" value="-0"/>
  <variable name="x0,15" index="5" value="-0"/>
  <variable name="x0,16" index="6" value="1"/>
  <variable name="x0,17" index="7" value="-0"/>
  <variable name="x0,18" index="8" value="-0"/>
  <variable name="x1,12" index="9" value="0"/>
  <variable name="x1,13" index="10" value="-0"/>
  <variable name="x1,14" index="11" value="1"/>
  <variable name="x1,15" index="12" value="-0"/>
  <variable name="x1,16" index="13" value="-0"/>
  <variable name="x1,17" index="14" value="0"/>
  <variable name="x1,18" index="15" value="-0"/>
  <variable name="x2,11" index="16" value="0"/>
  <variable name="x2,12" index="17" value="-0"/>
  <variable name="x2,13" index="18" value="1"/>
  <variable name="x2,14" index="19" value="-0"/>
  <variable name="x2,15" index="20" value="-0"/>
  <variable name="x2,16" index="21" value="-0"/>
  <variable name="x2,17" index="22" value="-0"/>
  <variable name="x3,12" index="23" value="-0"/>
  <variable name="x3,13" index="24" value="-0"/>
  <variable name="x3,14" index="25" value="0"/>
  <variable name="x3,15" index="26" value="-0"/>
  <variable name="x3,16" index="27" value="-0"/>
  <variable name="x3,17" index="28" value="-0"/>
  <variable name="x3,18" index="29" value="1"/>
  <variable name="x4,12" index="30" value="-0"/>
  <variable name="x4,13" index="31" value="-0"/>
  <variable name="x4,14" index="32" value="0"/>
  <variable name="x4,15" index="33" value="-0"/>
  <variable name="x4,16" index="34" value="-0"/>
  <variable name="x4,17" index="35" value="-0"/>
  <variable name="x4,18" index="36" value="1"/>
  <variable name="x5,11" index="37" value="0"/>
  <variable name="x5,12" index="38" value="-0"/>
  <variable name="x5,13" index="39" value="-0"/>
  <variable name="x5,14" index="40" value="-0"/>
  <variable name="x5,15" index="41" value="-0"/>
  <variable name="x5,16" index="42" value="-0"/>
  <variable name="x5,17" index="43" value="1"/>
  <variable name="x6,11" index="44" value="0"/>
  <variable name="x6,12" index="45" value="-0"/>
  <variable name="x6,13" index="46" value="-0"/>
  <variable name="x6,14" index="47" value="-0"/>
  <variable name="x6,15" index="48" value="-0"/>
  <variable name="x6,16" index="49" value="1"/>
  <variable name="x6,17" index="50" value="-0"/>
  <variable name="x6,18" index="51" value="-0"/>
  <variable name="x7,11" index="52" value="1"/>
  <variable name="x7,12" index="53" value="-0"/>
  <variable name="x7,13" index="54" value="-0"/>
  <variable name="x7,14" index="55" value="0"/>
  <variable name="x7,15" index="56" value="0"/>
  <variable name="x7,16" index="57" value="-0"/>
  <variable name="x7,17" index="58" value="-0"/>
  <variable name="x7,18" index="59" value="-0"/>
  <variable name="x8,10" index="60" value="1"/>
  <variable name="x8,11" index="61" value="0"/>
  <variable name="x8,12" index="62" value="-0"/>
  <variable name="x8,13" index="63" value="-0"/>
  <variable name="x8,14" index="64" value="-0"/>
  <variable name="x8,15" index="65" value="-0"/>
  <variable name="x8,16" index="66" value="-0"/>
  <variable name="x8,17" index="67" value="-0"/>
  <variable name="x9,10" index="68" value="0"/>
  <variable name="x9,11" index="69" value="-0"/>
  <variable name="x9,12" index="70" value="-0"/>
  <variable name="x9,13" index="71" value="-0"/>
  <variable name="x9,14" index="72" value="-0"/>
  <variable name="x9,15" index="73" value="1"/>
  <variable name="x9,16" index="74" value="-0"/>
  <variable name="x9,17" index="75" value="-0"/>
  <variable name="x9,18" index="76" value="-0"/>
  <variable name="x10,10" index="77" value="0"/>
  <variable name="x10,11" index="78" value="-0"/>
  <variable name="x10,12" index="79" value="0"/>
  <variable name="x10,13" index="80" value="-0"/>
  <variable name="x10,14" index="81" value="-0"/>
  <variable name="x10,15" index="82" value="-0"/>
  <variable name="x10,16" index="83" value="-0"/>
  <variable name="x10,17" index="84" value="1"/>
  <variable name="x10,18" index="85" value="-0"/>
  <variable name="x11,9" index="86" value="0"/>
  <variable name="x11,10" index="87" value="-0"/>
  <variable name="x11,11" index="88" value="-0"/>
  <variable name="x11,12" index="89" value="-0"/>
  <variable name="x11,13" index="90" value="-0"/>
  <variable name="x11,14" index="91" value="1"/>
  <variable name="x11,15" index="92" value="-0"/>
  <variable name="x11,16" index="93" value="-0"/>
  <variable name="x11,17" index="94" value="-0"/>
  <variable name="x12,9" index="95" value="1"/>
  <variable name="x12,10" index="96" value="-0"/>
  <variable name="x12,11" index="97" value="0"/>
  <variable name="x12,12" index="98" value="-0"/>
  <variable name="x12,13" index="99" value="-0"/>
  <variable name="x12,14" index="100" value="-0"/>
  <variable name="x12,15" index="101" value="-0"/>
  <variable name="x12,16" index="102" value="-0"/>
  <variable name="x12,17" index="103" value="-0"/>
  <variable name="x12,18" index="104" value="-0"/>
  <variable name="x13,9" index="105" value="-0"/>
  <variable name="x13,10" index="106" value="-0"/>
  <variable name="x13,11" index="107" value="1"/>
  <variable name="x13,12" index="108" value="-0"/>
  <variable name="x13,13" index="109" value="-0"/>
  <variable name="x13,14" index="110" value="-0"/>
  <variable name="x13,15" index="111" value="-0"/>
  <variable name="x13,16" index="112" value="-0"/>
  <variable name="x13,17" index="113" value="-0"/>
  <variable name="x13,18" index="114" value="-0"/>
  <variable name="x14,8" index="115" value="1"/>
  <variable name="x14,9" index="116" value="-0"/>
  <variable name="x14,10" index="117" value="-0"/>
  <variable name="x14,11" index="118" value="0"/>
  <variable name="x14,12" index="119" value="-0"/>
  <variable name="x14,13" index="120" value="-0"/>
  <variable name="x14,14" index="121" value="-0"/>
  <variable name="x14,15" index="122" value="-0"/>
  <variable name="x14,16" index="123" value="-0"/>
  <variable name="x14,17" index="124" value="-0"/>
  <variable name="x15,8" index="125" value="-0"/>
  <variable name="x15,9" index="126" value="-0"/>
  <variable name="x15,10" index="127" value="-0"/>
  <variable name="x15,11" index="128" value="0"/>
  <variable name="x15,12" index="129" value="-0"/>
  <variable name="x15,13" index="130" value="1"/>
  <variable name="x15,14" index="131" value="-0"/>
  <variable name="x15,15" index="132" value="-0"/>
  <variable name="x15,16" index="133" value="-0"/>
  <variable name="x15,17" index="134" value="-0"/>
  <variable name="x15,18" index="135" value="-0"/>
  <variable name="x16,8" index="136" value="-0"/>
  <variable name="x16,9" index="137" value="-0"/>
  <variable name="x16,10" index="138" value="-0"/>
  <variable name="x16,11" index="139" value="0"/>
  <variable name="x16,12" index="140" value="-0"/>
  <variable name="x16,13" index="141" value="-0"/>
  <variable name="x16,14" index="142" value="-0"/>
  <variable name="x16,15" index="143" value="1"/>
  <variable name="x16,16" index="144" value="0"/>
  <variable name="x16,17" index="145" value="-0"/>
  <variable name="x16,18" index="146" value="-0"/>
  <variable name="x17,7" index="147" value="0"/>
  <variable name="x17,8" index="148" value="-0"/>
  <variable name="x17,9" index="149" value="-0"/>
  <variable name="x17,10" index="150" value="-0"/>
  <variable name="x17,11" index="151" value="-0"/>
  <variable name="x17,12" index="152" value="1"/>
  <variable name="x17,13" index="153" value="-0"/>
  <variable name="x17,14" index="154" value="-0"/>
  <variable name="x17,15" index="155" value="-0"/>
  <variable name="x17,16" index="156" value="-0"/>
  <variable name="x17,17" index="157" value="-0"/>
  <variable name="x18,7" index="158" value="-0"/>
  <variable name="x18,8" index="159" value="-0"/>
  <variable name="x18,9" index="160" value="-0"/>
  <variable name="x18,10" index="161" value="1"/>
  <variable name="x18,11" index="162" value="0"/>
  <variable name="x18,12" index="163" value="-0"/>
  <variable name="x18,13" index="164" value="-0"/>
  <variable name="x18,14" index="165" value="-0"/>
  <variable name="x18,15" index="166" value="-0"/>
  <variable name="x18,16" index="167" value="-0"/>
  <variable name="x18,17" index="168" value="-0"/>
  <variable name="x18,18" index="169" value="-0"/>
  <variable name="x19,7" index="170" value="0"/>
  <variable name="x19,8" index="171" value="-0"/>
  <variable name="x19,9" index="172" value="-0"/>
  <variable name="x19,10" index="173" value="-0"/>
  <variable name="x19,11" index="174" value="-0"/>
  <variable name="x19,12" index="175" value="1"/>
  <variable name="x19,13" index="176" value="-0"/>
  <variable name="x19,14" index="177" value="-0"/>
  <variable name="x19,15" index="178" value="-0"/>
  <variable name="x19,16" index="179" value="-0"/>
  <variable name="x19,17" index="180" value="-0"/>
  <variable name="x19,18" index="181" value="-0"/>
  <variable name="x20,6" index="182" value="0"/>
  <variable name="x20,7" index="183" value="1"/>
  <variable name="x20,8" index="184" value="-0"/>
  <variable name="x20,9" index="185" value="-0"/>
  <variable name="x20,10" index="186" value="-0"/>
  <variable name="x20,11" index="187" value="-0"/>
  <variable name="x20,12" index="188" value="-0"/>
  <variable name="x20,13" index="189" value="-0"/>
  <variable name="x20,14" index="190" value="-0"/>
  <variable name="x20,15" index="191" value="-0"/>
  <variable name="x20,16" index="192" value="-0"/>
  <variable name="x20,17" index="193" value="-0"/>
  <variable name="x21,6" index="194" value="1"/>
  <variable name="x21,7" index="195" value="-0"/>
  <variable name="x21,8" index="196" value="-0"/>
  <variable name="x21,9" index="197" value="-0"/>
  <variable name="x21,10" index="198" value="-0"/>
  <variable name="x21,11" index="199" value="0"/>
  <variable name="x21,12" index="200" value="-0"/>
  <variable name="x21,13" index="201" value="-0"/>
  <variable name="x21,14" index="202" value="-0"/>
  <variable name="x21,15" index="203" value="-0"/>
  <variable name="x21,16" index="204" value="-0"/>
  <variable name="x21,17" index="205" value="-0"/>
  <variable name="x21,18" index="206" value="-0"/>
  <variable name="x22,6" index="207" value="0"/>
  <variable name="x22,7" index="208" value="-0"/>
  <variable name="x22,8" index="209" value="-0"/>
  <variable name="x22,9" index="210" value="1"/>
  <variable name="x22,10" index="211" value="-0"/>
  <variable name="x22,11" index="212" value="-0"/>
  <variable name="x22,12" index="213" value="-0"/>
  <variable name="x22,13" index="214" value="-0"/>
  <variable name="x22,14" index="215" value="-0"/>
  <variable name="x22,15" index="216" value="-0"/>
  <variable name="x22,16" index="217" value="-0"/>
  <variable name="x22,17" index="218" value="-0"/>
  <variable name="x22,18" index="219" value="-0"/>
  <variable name="x23,5" index="220" value="1"/>
  <variable name="x23,6" index="221" value="-0"/>
  <variable name="x23,7" index="222" value="-0"/>
  <variable name="x23,8" index="223" value="-0"/>
  <variable name="x23,9" index="224" value="-0"/>
  <variable name="x23,10" index="225" value="-0"/>
  <variable name="x23,11" index="226" value="-0"/>
  <variable name="x23,12" index="227" value="-0"/>
  <variable name="x23,13" index="228" value="-0"/>
  <variable name="x23,14" index="229" value="-0"/>
  <variable name="x23,15" index="230" value="-0"/>
  <variable name="x23,16" index="231" value="-0"/>
  <variable name="x23,17" index="232" value="-0"/>
  <variable name="x24,9" index="233" value="1"/>
  <variable name="x24,10" index="234" value="-0"/>
  <variable name="x24,11" index="235" value="-0"/>
  <variable name="x24,12" index="236" value="-0"/>
  <variable name="x24,13" index="237" value="-0"/>
  <variable name="x24,14" index="238" value="-0"/>
  <variable name="x24,15" index="239" value="0"/>
  <variable name="x25,9" index="240" value="-0"/>
  <variable name="x25,10" index="241" value="-0"/>
  <variable name="x25,11" index="242" value="-0"/>
  <variable name="x25,12" index="243" value="-0"/>
  <variable name="x25,13" index="244" value="-0"/>
  <variable name="x25,14" index="245" value="1"/>
  <variable name="x25,15" index="246" value="-0"/>
  <variable name="x26,8" index="247" value="1"/>
  <variable name="x26,9" index="248" value="-0"/>
  <variable name="x26,10" index="249" value="-0"/>
  <variable name="x26,11" index="250" value="-0"/>
  <variable name="x26,12" index="251" value="-0"/>
  <variable name="x26,13" index="252" value="-0"/>
  <variable name="x26,14" index="253" value="-0"/>
  <variable name="x26,15" index="254" value="-0"/>
  <variable name="x27,7" index="255" value="1"/>
  <variable name="x27,8" index="256" value="-0"/>
  <variable name="x27,9" index="257" value="-0"/>
  <variable name="x27,10" index="258" value="-0"/>
  <variable name="x27,11" index="259" value="-0"/>
  <variable name="x27,12" index="260" value="-0"/>
  <variable name="x27,13" index="261" value="-0"/>
  <variable name="x27,14" index="262" value="-0"/>
  <variable name="x27,15" index="263" value="-0"/>
  <variable name="x28,6" index="264" value="1"/>
  <variable name="x28,7" index="265" value="-0"/>
  <variable name="x28,8" index="266" value="-0"/>
  <variable name="x28,9" index="267" value="-0"/>
  <variable name="x28,10" index="268" value="-0"/>
  <variable name="x28,11" index="269" value="-0"/>
  <variable name="x28,12" index="270" value="-0"/>
  <variable name="x28,13" index="271" value="-0"/>
  <variable name="x28,14" index="272" value="-0"/>
  <variable name="x28,15" index="273" value="-0"/>
  <variable name="x29,5" index="274" value="1"/>
  <variable name="x29,6" index="275" value="-0"/>
  <variable name="x29,7" index="276" value="-0"/>
  <variable name="x29,8" index="277" value="-0"/>
  <variable name="x29,9" index="278" value="-0"/>
  <variable name="x29,10" index="279" value="-0"/>
  <variable name="x29,11" index="280" value="-0"/>
  <variable name="x29,12" index="281" value="-0"/>
  <variable name="x29,13" index="282" value="-0"/>
  <variable name="x29,14" index="283" value="-0"/>
  <variable name="x29,15" index="284" value="-0"/>
  <variable name="x30,4" index="285" value="1"/>
  <variable name="x30,5" index="286" value="-0"/>
  <variable name="x30,6" index="287" value="-0"/>
  <variable name="x30,7" index="288" value="-0"/>
  <variable name="x30,8" index="289" value="-0"/>
  <variable name="x30,9" index="290" value="-0"/>
  <variable name="x30,10" index="291" value="-0"/>
  <variable name="x30,11" index="292" value="-0"/>
  <variable name="x30,12" index="293" value="-0"/>
  <variable name="x30,13" index="294" value="-0"/>
  <variable name="x30,14" index="295" value="-0"/>
  <variable name="x30,15" index="296" value="-0"/>
  <variable name="x31,3" index="297" value="1"/>
  <variable name="x31,4" index="298" value="-0"/>
  <variable name="x31,5" index="299" value="-0"/>
  <variable name="x31,6" index="300" value="-0"/>
  <variable name="x31,7" index="301" value="-0"/>
  <variable name="x31,8" index="302" value="-0"/>
  <variable name="x31,9" index="303" value="-0"/>
  <variable name="x31,10" index="304" value="-0"/>
  <variable name="x31,11" index="305" value="-0"/>
  <variable name="x31,12" index="306" value="-0"/>
  <variable name="x31,13" index="307" value="-0"/>
  <variable name="x31,14" index="308" value="-0"/>
  <variable name="x31,15" index="309" value="-0"/>
  <variable name="x32,8" index="310" value="1"/>
  <variable name="x32,9" index="311" value="-0"/>
  <variable name="x32,10" index="312" value="-0"/>
  <variable name="x32,11" index="313" value="-0"/>
  <variable name="x32,12" index="314" value="-0"/>
  <variable name="x32,13" index="315" value="-0"/>
  <variable name="x32,14" index="316" value="-0"/>
  <variable name="x33,7" index="317" value="1"/>
  <variable name="x33,8" index="318" value="-0"/>
  <variable name="x33,9" index="319" value="0"/>
  <variable name="x33,10" index="320" value="-0"/>
  <variable name="x33,11" index="321" value="-0"/>
  <variable name="x33,12" index="322" value="-0"/>
  <variable name="x33,13" index="323" value="-0"/>
  <variable name="x34,6" index="324" value="1"/>
  <variable name="x34,7" index="325" value="-0"/>
  <variable name="x34,8" index="326" value="-0"/>
  <variable name="x34,9" index="327" value="-0"/>
  <variable name="x34,10" index="328" value="-0"/>
  <variable name="x34,11" index="329" value="-0"/>
  <variable name="x34,12" index="330" value="-0"/>
  <variable name="x35,5" index="331" value="1"/>
  <variable name="x35,6" index="332" value="-0"/>
  <variable name="x35,7" index="333" value="-0"/>
  <variable name="x35,8" index="334" value="-0"/>
  <variable name="x35,9" index="335" value="-0"/>
  <variable name="x35,10" index="336" value="-0"/>
  <variable name="x35,11" index="337" value="-0"/>
  <variable name="x36,4" index="338" value="1"/>
  <variable name="x36,5" index="339" value="-0"/>
  <variable name="x36,6" index="340" value="-0"/>
  <variable name="x36,7" index="341" value="-0"/>
  <variable name="x36,8" index="342" value="-0"/>
  <variable name="x36,9" index="343" value="-0"/>
  <variable name="x36,10" index="344" value="-0"/>
  <variable name="x37,3" index="345" value="1"/>
  <variable name="x37,4" index="346" value="-0"/>
  <variable name="x37,5" index="347" value="-0"/>
  <variable name="x37,6" index="348" value="-0"/>
  <variable name="x37,7" index="349" value="-0"/>
  <variable name="x37,8" index="350" value="-0"/>
  <variable name="x37,9" index="351" value="-0"/>
  <variable name="x38,2" index="352" value="1"/>
  <variable name="x38,3" index="353" value="0"/>
  <variable name="x38,4" index="354" value="0"/>
  <variable name="x38,5" index="355" value="0"/>
  <variable name="x38,6" index="356" value="0"/>
  <variable name="x38,7" index="357" value="0"/>
  <variable name="x38,8" index="358" value="0"/>
  <variable name="x39,1" index="359" value="1"/>
  <variable name="x39,2" index="360" value="0"/>
  <variable name="x39,3" index="361" value="0"/>
  <variable name="x39,4" index="362" value="0"/>
  <variable name="x39,5" index="363" value="0"/>
  <variable name="x39,6" index="364" value="0"/>
  <variable name="x39,7" index="365" value="0"/>
  <variable name="x30,3" index="366" value="0"/>
  <variable name="x29,4" index="367" value="0"/>
  <variable name="x28,5" index="368" value="0"/>
  <variable name="x27,6" index="369" value="0"/>
  <variable name="x26,7" index="370" value="0"/>
  <variable name="x24,8" index="371" value="0"/>
  <variable name="x25,8" index="372" value="0"/>
  <variable name="x24,16" index="373" value="0"/>
  <variable name="x25,16" index="374" value="0"/>
  <variable name="x26,16" index="375" value="0"/>
  <variable name="x27,16" index="376" value="0"/>
  <variable name="x28,16" index="377" value="0"/>
  <variable name="x29,16" index="378" value="0"/>
  <variable name="x30,16" index="379" value="0"/>
  <variable name="x31,16" index="380" value="0"/>
 </variables>
</CPLEXSolution>
